; ./prepared/jayhorn/./sv-comp-2020/jbmc-regression/ArithmeticException1/smt-output-with-inlining/jayhorn-tmp_2_000.smt2
(set-logic HORN)


(declare-fun |<Main: void main(JayArray_java_lang_String)>_Block8_3| ( Int Int Int Int Int Int Int Int Int Int Int Int Int Int Int Int Int Int Int Int Int Int Int Int Int Int Int Int Int Int Int Int Int Int Int Int Int Int Int Int Int Int Int Int Int Int Int Int Int Int Int Int Int Int Int Int Int Int Int ) Bool)
(declare-fun |<Main: void main(JayArray_java_lang_String)>_Block3_2| ( Int Int Int Int Int Int Int Int Int Int Int Int Int Int Int Int Int Int Int Int Int Int Int Int Int Int Int Int Int Int Int Int Int Int Int Int Int Int Int Int Int Int Int Int Int Int Int Int Int Int Int ) Bool)
(declare-fun |<Main: void main(JayArray_java_lang_String)>_Block8_1| ( Int Int Int Int Int Int Int Int Int Int Int Int Int Int Int Int Int Int Int Int Int Int Int Int Int Int Int Int Int Int Int Int Int Int Int Int Int Int Int Int Int Int Int Int Int Int Int Int Int Int Int Int Int Int Int Int Int ) Bool)
(declare-fun |<Main: void main(JayArray_java_lang_String)>_Block4_1| ( Int Int Int Int Int Int Int Int Int Int Int Int Int Int Int Int Int Int Int Int Int Int Int Int Int Int Int Int Int Int Int Int Int Int Int Int Int Int Int Int Int Int Int Int ) Bool)
(declare-fun |<Main: void main(JayArray_java_lang_String)>_pre| ( Int Int Int Int Int Int Int Int Int Int Int Int Int Int Int Int Int Int Int Int Int Int Int Int ) Bool)
(declare-fun |<Main: void main(JayArray_java_lang_String)>_Block3| ( Int Int Int Int Int Int Int Int Int Int Int Int Int Int Int Int Int Int Int Int Int Int Int Int Int Int Int Int Int Int Int Int Int Int Int Int Int Int Int Int Int Int Int Int Int Int Int Int Int Int Int Int ) Bool)
(declare-fun |<Main: void main(JayArray_java_lang_String)>_Block8_4| ( Int Int Int Int Int Int Int Int Int Int Int Int Int Int Int Int Int Int Int Int Int Int Int Int Int Int Int Int Int Int Int Int Int Int Int Int Int Int Int Int Int Int Int Int Int Int Int Int Int Int Int Int Int Int Int Int ) Bool)
(declare-fun |<Main: void main(JayArray_java_lang_String)>_Block8| ( Int Int Int Int Int Int Int Int Int Int Int Int Int Int Int Int Int Int Int Int Int Int Int Int Int Int Int Int Int Int Int Int Int Int Int Int Int Int Int Int Int Int Int Int Int Int Int Int Int Int Int Int Int Int Int Int Int ) Bool)
(declare-fun |<Main: void main(JayArray_java_lang_String)>_Block3_1| ( Int Int Int Int Int Int Int Int Int Int Int Int Int Int Int Int Int Int Int Int Int Int Int Int Int Int Int Int Int Int Int Int Int Int Int Int Int Int Int Int Int Int Int Int Int Int Int Int Int Int Int Int ) Bool)
(declare-fun |<Main: void main(JayArray_java_lang_String)>_Block4| ( Int Int Int Int Int Int Int Int Int Int Int Int Int Int Int Int Int Int Int Int Int Int Int Int Int Int Int Int Int Int Int Int Int Int Int Int Int Int Int Int Int Int Int Int Int Int Int Int ) Bool)
(declare-fun |<Main: void main(JayArray_java_lang_String)>_Block8_7| ( Int Int Int Int Int Int Int Int Int Int Int Int Int Int Int Int Int Int Int Int Int Int Int Int Int Int Int Int Int Int Int Int Int Int Int Int Int Int Int Int Int Int Int Int Int Int Int Int Int ) Bool)
(declare-fun |<Main: void main(JayArray_java_lang_String)>_Block8_6| ( Int Int Int Int Int Int Int Int Int Int Int Int Int Int Int Int Int Int Int Int Int Int Int Int Int Int Int Int Int Int Int Int Int Int Int Int Int Int Int Int Int Int Int Int Int Int Int Int Int ) Bool)
(declare-fun |<Main: void main(JayArray_java_lang_String)>_Block8_5| ( Int Int Int Int Int Int Int Int Int Int Int Int Int Int Int Int Int Int Int Int Int Int Int Int Int Int Int Int Int Int Int Int Int Int Int Int Int Int Int Int Int Int Int Int Int Int Int Int ) Bool)
(declare-fun |<Main: void main(JayArray_java_lang_String)>_Block8_2| ( Int Int Int Int Int Int Int Int Int Int Int Int Int Int Int Int Int Int Int Int Int Int Int Int Int Int Int Int Int Int Int Int Int Int Int Int Int Int Int Int Int Int Int Int Int Int Int Int Int Int Int Int Int Int Int Int ) Bool)
(declare-fun |<Main: void main(JayArray_java_lang_String)>_Block8_8| ( Int Int Int Int Int Int Int Int Int Int Int Int Int Int Int Int Int Int Int Int Int Int Int Int Int Int Int Int Int Int Int Int Int Int Int Int Int Int Int Int Int Int Int Int Int Int Int Int Int Int Int Int ) Bool)

(assert
  (forall ( (A Int) (B Int) (C Int) (D Int) (E Int) (F Int) (G Int) (H Int) (I Int) (J Int) (K Int) (L Int) (M Int) (N Int) (O Int) (P Int) (Q Int) (R Int) (S Int) (T Int) (U Int) (V Int) (W Int) (X Int) (Y Int) (Z Int) (A1 Int) (B1 Int) (C1 Int) (D1 Int) (E1 Int) (F1 Int) (G1 Int) (H1 Int) (v_34 Int) (v_35 Int) (v_36 Int) (v_37 Int) (v_38 Int) (v_39 Int) (v_40 Int) (v_41 Int) (v_42 Int) (v_43 Int) (v_44 Int) (v_45 Int) (v_46 Int) (v_47 Int) (v_48 Int) (v_49 Int) (v_50 Int) (v_51 Int) (v_52 Int) (v_53 Int) (v_54 Int) (v_55 Int) (v_56 Int) ) 
    (=>
      (and
        (|<Main: void main(JayArray_java_lang_String)>_pre|
  R
  H
  D1
  P
  H1
  T
  C1
  J
  O
  I
  B1
  N
  S
  G
  L
  F1
  A1
  F
  C
  A
  Z
  M
  B
  D)
        (and (= v_34 R)
     (= v_35 H)
     (= v_36 D1)
     (= v_37 P)
     (= v_38 T)
     (= v_39 C1)
     (= v_40 J)
     (= v_41 O)
     (= v_42 I)
     (= v_43 B1)
     (= v_44 N)
     (= v_45 S)
     (= v_46 G)
     (= v_47 L)
     (= v_48 F1)
     (= v_49 A1)
     (= v_50 F)
     (= v_51 C)
     (= v_52 A)
     (= v_53 Z)
     (= v_54 M)
     (= v_55 B)
     (= v_56 D))
      )
      (|<Main: void main(JayArray_java_lang_String)>_Block8|
  R
  H
  D1
  P
  H1
  T
  C1
  J
  O
  I
  B1
  N
  S
  G
  L
  F1
  A1
  F
  C
  A
  Z
  M
  B
  D
  V
  K
  X
  E1
  v_34
  v_35
  v_36
  v_37
  G1
  Y
  U
  Q
  W
  E
  v_38
  v_39
  v_40
  v_41
  v_42
  v_43
  v_44
  v_45
  v_46
  v_47
  v_48
  v_49
  v_50
  v_51
  v_52
  v_53
  v_54
  v_55
  v_56)
    )
  )
)
(assert
  (forall ( (A Int) (B Int) (C Int) (D Int) (E Int) (F Int) (G Int) (H Int) (I Int) (J Int) (K Int) (L Int) (M Int) (N Int) (O Int) (P Int) (Q Int) (R Int) (S Int) (T Int) (U Int) (V Int) (W Int) (X Int) (Y Int) (Z Int) (A1 Int) (B1 Int) (C1 Int) (D1 Int) (E1 Int) (F1 Int) (G1 Int) (H1 Int) (I1 Int) (J1 Int) (K1 Int) (L1 Int) (M1 Int) (N1 Int) (O1 Int) (P1 Int) (Q1 Int) (R1 Int) (S1 Int) (T1 Int) (U1 Int) (V1 Int) (W1 Int) (X1 Int) (Y1 Int) (Z1 Int) (A2 Int) (B2 Int) (v_54 Int) (v_55 Int) (v_56 Int) (v_57 Int) (v_58 Int) (v_59 Int) (v_60 Int) (v_61 Int) ) 
    (=>
      (and
        (|<Main: void main(JayArray_java_lang_String)>_Block8|
  Y
  G
  K1
  H
  Q
  P
  R
  E1
  W1
  N1
  V
  C
  S1
  N
  Y1
  A2
  J1
  A1
  L
  F1
  M1
  G1
  Z1
  O1
  B
  K
  O
  B2
  v_54
  v_55
  v_56
  v_57
  L1
  U
  X1
  A
  D1
  X
  H1
  U1
  W
  R1
  M
  B1
  T1
  C1
  I
  F
  E
  V1
  J
  P1
  S
  I1
  Z
  T
  Q1)
        (and (= v_54 Y)
     (= v_55 G)
     (= v_56 K1)
     (= v_57 H)
     (= D 1)
     (= v_58 Y)
     (= v_59 G)
     (= v_60 K1)
     (= v_61 H))
      )
      (|<Main: void main(JayArray_java_lang_String)>_Block8_1|
  Y
  G
  K1
  H
  Q
  P
  R
  E1
  W1
  N1
  V
  C
  S1
  N
  Y1
  A2
  J1
  A1
  L
  F1
  M1
  G1
  Z1
  O1
  B
  K
  O
  B2
  v_58
  v_59
  v_60
  v_61
  L1
  D
  X1
  A
  D1
  X
  H1
  U1
  W
  R1
  M
  B1
  T1
  C1
  I
  F
  E
  V1
  J
  P1
  S
  I1
  Z
  T
  Q1)
    )
  )
)
(assert
  (forall ( (A Int) (B Int) (C Int) (D Int) (E Int) (F Int) (G Int) (H Int) (I Int) (J Int) (K Int) (L Int) (M Int) (N Int) (O Int) (P Int) (Q Int) (R Int) (S Int) (T Int) (U Int) (V Int) (W Int) (X Int) (Y Int) (Z Int) (A1 Int) (B1 Int) (C1 Int) (D1 Int) (E1 Int) (F1 Int) (G1 Int) (H1 Int) (I1 Int) (J1 Int) (K1 Int) (L1 Int) (M1 Int) (N1 Int) (O1 Int) (P1 Int) (Q1 Int) (R1 Int) (S1 Int) (T1 Int) (U1 Int) (V1 Int) (W1 Int) (X1 Int) (Y1 Int) (Z1 Int) (A2 Int) (v_53 Int) (v_54 Int) (v_55 Int) (v_56 Int) (v_57 Int) (v_58 Int) (v_59 Int) (v_60 Int) ) 
    (=>
      (and
        (|<Main: void main(JayArray_java_lang_String)>_Block8_1|
  J1
  I
  M
  X
  X1
  Z1
  V
  W
  Q1
  M1
  E1
  T
  S1
  D1
  H1
  F1
  Z
  H
  O1
  A2
  P
  R
  R1
  W1
  L
  D
  C
  O
  v_53
  v_54
  v_55
  v_56
  F
  I1
  V1
  G
  K
  Y1
  L1
  B
  Q
  E
  A1
  J
  S
  G1
  P1
  N1
  U1
  K1
  U
  N
  A
  B1
  T1
  C1
  Y)
        (and (= v_53 J1)
     (= v_54 I)
     (= v_55 M)
     (= v_56 X)
     (= J1 1)
     (<= 0 X)
     (= I 137)
     (= v_57 J1)
     (= v_58 I)
     (= v_59 M)
     (= v_60 X))
      )
      (|<Main: void main(JayArray_java_lang_String)>_Block8_2|
  J1
  I
  M
  X
  X1
  Z1
  V
  W
  Q1
  M1
  E1
  T
  S1
  D1
  H1
  F1
  Z
  H
  O1
  A2
  P
  R
  R1
  W1
  L
  D
  C
  O
  v_57
  v_58
  v_59
  v_60
  I1
  V1
  G
  K
  Y1
  L1
  B
  Q
  E
  A1
  J
  S
  G1
  P1
  N1
  U1
  K1
  U
  N
  A
  B1
  T1
  C1
  Y)
    )
  )
)
(assert
  (forall ( (A Int) (B Int) (C Int) (D Int) (E Int) (F Int) (G Int) (H Int) (I Int) (J Int) (K Int) (L Int) (M Int) (N Int) (O Int) (P Int) (Q Int) (R Int) (S Int) (T Int) (U Int) (V Int) (W Int) (X Int) (Y Int) (Z Int) (A1 Int) (B1 Int) (C1 Int) (D1 Int) (E1 Int) (F1 Int) (G1 Int) (H1 Int) (I1 Int) (J1 Int) (K1 Int) (L1 Int) (M1 Int) (N1 Int) (O1 Int) (P1 Int) (Q1 Int) (R1 Int) (S1 Int) (T1 Int) (U1 Int) (V1 Int) (W1 Int) (X1 Int) (Y1 Int) (Z1 Int) (A2 Int) (B2 Int) (C2 Int) (v_55 Int) (v_56 Int) (v_57 Int) (v_58 Int) (v_59 Int) (v_60 Int) (v_61 Int) (v_62 Int) ) 
    (=>
      (and
        (|<Main: void main(JayArray_java_lang_String)>_Block8_2|
  J
  E1
  X1
  D
  W
  Y
  R1
  F
  T
  S
  O
  A
  T1
  M1
  K1
  U
  F1
  L1
  G1
  A2
  N1
  M
  U1
  Q1
  N
  H1
  P1
  B
  v_55
  v_56
  v_57
  v_58
  I1
  I
  L
  E
  P
  G
  A1
  R
  S1
  Q
  Z1
  Y1
  K
  C2
  W1
  C1
  X
  C
  V1
  J1
  B1
  B2
  Z
  D1)
        (and (= v_55 J)
     (= v_56 E1)
     (= v_57 X1)
     (= v_58 D)
     (= O1 0)
     (= V 0)
     (= H 0)
     (= v_59 J)
     (= v_60 E1)
     (= v_61 X1)
     (= v_62 D))
      )
      (|<Main: void main(JayArray_java_lang_String)>_Block8_3|
  J
  E1
  X1
  D
  W
  Y
  R1
  F
  T
  S
  O
  A
  T1
  M1
  K1
  U
  F1
  L1
  G1
  A2
  N1
  M
  U1
  Q1
  N
  H1
  P1
  B
  O1
  V
  H
  v_59
  v_60
  v_61
  v_62
  I1
  I
  L
  E
  P
  G
  A1
  R
  S1
  Q
  Z1
  Y1
  K
  C2
  W1
  C1
  X
  C
  V1
  J1
  B1
  B2
  Z
  D1)
    )
  )
)
(assert
  (forall ( (A Int) (B Int) (C Int) (D Int) (E Int) (F Int) (G Int) (H Int) (I Int) (J Int) (K Int) (L Int) (M Int) (N Int) (O Int) (P Int) (Q Int) (R Int) (S Int) (T Int) (U Int) (V Int) (W Int) (X Int) (Y Int) (Z Int) (A1 Int) (B1 Int) (C1 Int) (D1 Int) (E1 Int) (F1 Int) (G1 Int) (H1 Int) (I1 Int) (J1 Int) (K1 Int) (L1 Int) (M1 Int) (N1 Int) (O1 Int) (P1 Int) (Q1 Int) (R1 Int) (S1 Int) (T1 Int) (U1 Int) (V1 Int) (W1 Int) (X1 Int) (Y1 Int) (Z1 Int) (A2 Int) (B2 Int) (C2 Int) (D2 Int) (E2 Int) (v_57 Int) (v_58 Int) (v_59 Int) (v_60 Int) (v_61 Int) (v_62 Int) (v_63 Int) (v_64 Int) ) 
    (=>
      (and
        (|<Main: void main(JayArray_java_lang_String)>_Block8_3|
  W1
  R
  N1
  J
  C
  A1
  P1
  X1
  A2
  R1
  U1
  E1
  X
  F1
  G1
  D2
  M
  G
  D1
  K1
  E2
  H1
  B
  P
  V
  B1
  I1
  K
  L1
  Z
  M1
  v_57
  v_58
  v_59
  v_60
  Y
  C1
  S1
  Q
  Z1
  E
  C2
  O
  F
  I
  T1
  J1
  W
  V1
  H
  L
  A
  T
  S
  D
  Q1
  N
  Y1
  B2)
        (and (= v_57 W1)
     (= v_58 R)
     (= v_59 N1)
     (= v_60 J)
     (= U 1)
     (= v_61 W1)
     (= v_62 R)
     (= v_63 N1)
     (= v_64 J))
      )
      (|<Main: void main(JayArray_java_lang_String)>_Block8_4|
  W1
  R
  N1
  J
  C
  A1
  P1
  X1
  A2
  R1
  U1
  E1
  X
  F1
  G1
  D2
  M
  G
  D1
  K1
  E2
  H1
  B
  P
  K
  L1
  Z
  M1
  v_61
  v_62
  v_63
  v_64
  Y
  C1
  S1
  Q
  Z1
  O1
  U
  O
  F
  I
  T1
  J1
  W
  V1
  H
  L
  A
  T
  S
  D
  Q1
  N
  Y1
  B2)
    )
  )
)
(assert
  (forall ( (A Int) (B Int) (C Int) (D Int) (E Int) (F Int) (G Int) (H Int) (I Int) (J Int) (K Int) (L Int) (M Int) (N Int) (O Int) (P Int) (Q Int) (R Int) (S Int) (T Int) (U Int) (V Int) (W Int) (X Int) (Y Int) (Z Int) (A1 Int) (B1 Int) (C1 Int) (D1 Int) (E1 Int) (F1 Int) (G1 Int) (H1 Int) (I1 Int) (J1 Int) (K1 Int) (L1 Int) (M1 Int) (N1 Int) (O1 Int) (P1 Int) (Q1 Int) (R1 Int) (S1 Int) (T1 Int) (U1 Int) (V1 Int) (W1 Int) (X1 Int) (Y1 Int) (Z1 Int) (v_52 Int) (v_53 Int) (v_54 Int) (v_55 Int) ) 
    (=>
      (and
        (|<Main: void main(JayArray_java_lang_String)>_Block8_4|
  X
  M
  R1
  W1
  Y1
  H
  G1
  F
  H1
  E1
  U
  Q1
  L1
  V1
  E
  N
  D
  T1
  K
  C
  L
  J1
  J
  O
  P1
  D1
  U1
  C1
  v_52
  v_53
  v_54
  v_55
  O1
  S
  A
  A1
  W
  X1
  Q
  S1
  Z1
  R
  I1
  G
  N1
  F1
  V
  B
  Y
  K1
  Z
  I
  B1
  T
  P
  M1)
        (and (= v_52 X) (= v_53 M) (= v_54 R1) (= v_55 W1) (= X 1))
      )
      (|<Main: void main(JayArray_java_lang_String)>_Block8_5|
  X
  M
  R1
  W1
  Y1
  H
  G1
  F
  H1
  E1
  U
  Q1
  L1
  V1
  E
  N
  D
  T1
  K
  C
  L
  J1
  J
  O
  P1
  D1
  U1
  C1
  O1
  X1
  Q
  A
  A1
  W
  I1
  G
  N1
  F1
  V
  B
  Y
  K1
  Z
  I
  B1
  T
  P
  M1)
    )
  )
)
(assert
  (forall ( (A Int) (B Int) (C Int) (D Int) (E Int) (F Int) (G Int) (H Int) (I Int) (J Int) (K Int) (L Int) (M Int) (N Int) (O Int) (P Int) (Q Int) (R Int) (S Int) (T Int) (U Int) (V Int) (W Int) (X Int) (Y Int) (Z Int) (A1 Int) (B1 Int) (C1 Int) (D1 Int) (E1 Int) (F1 Int) (G1 Int) (H1 Int) (I1 Int) (J1 Int) (K1 Int) (L1 Int) (M1 Int) (N1 Int) (O1 Int) (P1 Int) (Q1 Int) (R1 Int) (S1 Int) (T1 Int) (U1 Int) (V1 Int) (W1 Int) ) 
    (=>
      (and
        (|<Main: void main(JayArray_java_lang_String)>_Block8_5|
  A1
  O
  A
  Q1
  C
  D1
  I
  I1
  M1
  B1
  P
  T
  R
  K1
  V1
  L1
  U1
  Z
  Y
  Q
  L
  T1
  C1
  E1
  E
  J1
  H
  K
  D
  W
  S
  F
  S1
  N
  H1
  M
  R1
  B
  P1
  V
  X
  O1
  W1
  F1
  G1
  N1
  J
  U)
        true
      )
      (|<Main: void main(JayArray_java_lang_String)>_Block8_6|
  A1
  O
  A
  Q1
  C
  D1
  I
  I1
  M1
  B1
  P
  T
  R
  K1
  V1
  L1
  U1
  Z
  Y
  Q
  L
  T1
  C1
  E1
  E
  J1
  H
  K
  G
  D
  W
  S
  F
  S1
  N
  H1
  M
  R1
  B
  P1
  V
  X
  O1
  W1
  F1
  G1
  N1
  J
  U)
    )
  )
)
(assert
  (forall ( (A Int) (B Int) (C Int) (D Int) (E Int) (F Int) (G Int) (H Int) (I Int) (J Int) (K Int) (L Int) (M Int) (N Int) (O Int) (P Int) (Q Int) (R Int) (S Int) (T Int) (U Int) (V Int) (W Int) (X Int) (Y Int) (Z Int) (A1 Int) (B1 Int) (C1 Int) (D1 Int) (E1 Int) (F1 Int) (G1 Int) (H1 Int) (I1 Int) (J1 Int) (K1 Int) (L1 Int) (M1 Int) (N1 Int) (O1 Int) (P1 Int) (Q1 Int) (R1 Int) (S1 Int) (T1 Int) (U1 Int) (V1 Int) (W1 Int) ) 
    (=>
      (and
        (|<Main: void main(JayArray_java_lang_String)>_Block8_6|
  L1
  I1
  G1
  D1
  C
  I
  H
  D
  U1
  A
  T
  R
  S
  E1
  W1
  N1
  V1
  E
  C1
  G
  B1
  Q
  X
  B
  W
  S1
  Y
  A1
  K1
  Z
  F
  M1
  O1
  P
  J
  J1
  T1
  V
  L
  O
  R1
  Q1
  H1
  N
  F1
  K
  P1
  U
  M)
        (and (<= K1 2147483647) (<= (- 2147483648) K1))
      )
      (|<Main: void main(JayArray_java_lang_String)>_Block8_7|
  L1
  I1
  G1
  D1
  C
  I
  H
  D
  U1
  A
  T
  R
  S
  E1
  W1
  N1
  V1
  E
  C1
  G
  B1
  Q
  X
  B
  W
  S1
  Y
  A1
  K1
  Z
  F
  M1
  O1
  P
  J
  J1
  T1
  V
  L
  O
  R1
  Q1
  H1
  N
  F1
  K
  P1
  U
  M)
    )
  )
)
(assert
  (forall ( (A Int) (B Int) (C Int) (D Int) (E Int) (F Int) (G Int) (H Int) (I Int) (J Int) (K Int) (L Int) (M Int) (N Int) (O Int) (P Int) (Q Int) (R Int) (S Int) (T Int) (U Int) (V Int) (W Int) (X Int) (Y Int) (Z Int) (A1 Int) (B1 Int) (C1 Int) (D1 Int) (E1 Int) (F1 Int) (G1 Int) (H1 Int) (I1 Int) (J1 Int) (K1 Int) (L1 Int) (M1 Int) (N1 Int) (O1 Int) (P1 Int) (Q1 Int) (R1 Int) (S1 Int) (T1 Int) (U1 Int) (V1 Int) (W1 Int) (X1 Int) (Y1 Int) (Z1 Int) ) 
    (=>
      (and
        (|<Main: void main(JayArray_java_lang_String)>_Block8_7|
  U
  W1
  Y
  S
  Q
  K
  F1
  O1
  O
  N
  P
  J1
  R1
  B
  H
  S1
  I
  K1
  L1
  A1
  Q1
  I1
  A
  V
  D1
  B1
  V1
  T
  U1
  R
  H1
  T1
  Y1
  Z1
  M
  J
  M1
  E
  P1
  E1
  N1
  G
  C1
  L
  X
  F
  Z
  W
  G1)
        (and (= C 0) (= X1 0) (= D 0))
      )
      (|<Main: void main(JayArray_java_lang_String)>_Block8_8|
  U
  W1
  Y
  S
  Q
  K
  F1
  O1
  O
  N
  P
  J1
  R1
  B
  H
  S1
  I
  K1
  L1
  A1
  Q1
  I1
  A
  V
  D1
  B1
  V1
  T
  C
  D
  X1
  U1
  R
  H1
  T1
  Y1
  Z1
  M
  J
  M1
  E
  P1
  E1
  N1
  G
  C1
  L
  X
  F
  Z
  W
  G1)
    )
  )
)
(assert
  (forall ( (A Int) (B Int) (C Int) (D Int) (E Int) (F Int) (G Int) (H Int) (I Int) (J Int) (K Int) (L Int) (M Int) (N Int) (O Int) (P Int) (Q Int) (R Int) (S Int) (T Int) (U Int) (V Int) (W Int) (X Int) (Y Int) (Z Int) (A1 Int) (B1 Int) (C1 Int) (D1 Int) (E1 Int) (F1 Int) (G1 Int) (H1 Int) (I1 Int) (J1 Int) (K1 Int) (L1 Int) (M1 Int) (N1 Int) (O1 Int) (P1 Int) (Q1 Int) (R1 Int) (S1 Int) (T1 Int) (U1 Int) (V1 Int) (W1 Int) (X1 Int) (Y1 Int) (Z1 Int) ) 
    (=>
      (and
        (|<Main: void main(JayArray_java_lang_String)>_Block8_8|
  X
  G1
  N
  X1
  F
  A1
  P
  C
  S1
  R1
  U1
  Y1
  Z1
  J1
  H1
  P1
  K1
  W
  B
  K
  J
  C1
  D1
  O1
  D
  Q1
  I1
  N1
  G
  S
  Y
  Q
  L
  H
  F1
  Z
  B1
  W1
  E
  V
  T
  I
  M
  U
  O
  V1
  M1
  E1
  T1
  R
  A
  L1)
        true
      )
      (|<Main: void main(JayArray_java_lang_String)>_Block3|
  X
  G1
  N
  X1
  F
  A1
  P
  C
  S1
  R1
  U1
  Y1
  Z1
  J1
  H1
  P1
  K1
  W
  B
  K
  J
  C1
  D1
  O1
  D
  Q1
  I1
  N1
  G
  S
  Y
  Q
  L
  H
  F1
  Z
  B1
  W1
  E
  V
  T
  I
  M
  U
  O
  V1
  M1
  E1
  T1
  R
  A
  L1)
    )
  )
)
(assert
  (forall ( (A Int) (B Int) (C Int) (D Int) (E Int) (F Int) (G Int) (H Int) (I Int) (J Int) (K Int) (L Int) (M Int) (N Int) (O Int) (P Int) (Q Int) (R Int) (S Int) (T Int) (U Int) (V Int) (W Int) (X Int) (Y Int) (Z Int) (A1 Int) (B1 Int) (C1 Int) (D1 Int) (E1 Int) (F1 Int) (G1 Int) (H1 Int) (I1 Int) (J1 Int) (K1 Int) (L1 Int) (M1 Int) (N1 Int) (O1 Int) (P1 Int) (Q1 Int) (R1 Int) (S1 Int) (T1 Int) (U1 Int) (V1 Int) (W1 Int) (X1 Int) (Y1 Int) (Z1 Int) (A2 Int) ) 
    (=>
      (and
        (|<Main: void main(JayArray_java_lang_String)>_Block3|
  P
  C
  A2
  N1
  U1
  X1
  R1
  I
  S
  Z
  F
  G1
  L1
  W
  Y
  F1
  K1
  J1
  B
  D
  X
  H1
  L
  O
  E
  K
  M
  V1
  P1
  V
  Z1
  B1
  A1
  C1
  E1
  T1
  Q1
  I1
  O1
  M1
  N
  W1
  A
  G
  J
  Q
  U
  R
  D1
  H
  Y1
  S1)
        (= T 0)
      )
      (|<Main: void main(JayArray_java_lang_String)>_Block3_1|
  P
  C
  A2
  N1
  U1
  X1
  R1
  I
  S
  Z
  F
  G1
  L1
  W
  Y
  F1
  K1
  J1
  B
  D
  X
  H1
  L
  O
  T
  K
  M
  V1
  P1
  V
  Z1
  B1
  A1
  C1
  E1
  T1
  Q1
  I1
  O1
  M1
  N
  W1
  A
  G
  J
  Q
  U
  R
  D1
  H
  Y1
  S1)
    )
  )
)
(assert
  (forall ( (A Int) (B Int) (C Int) (D Int) (E Int) (F Int) (G Int) (H Int) (I Int) (J Int) (K Int) (L Int) (M Int) (N Int) (O Int) (P Int) (Q Int) (R Int) (S Int) (T Int) (U Int) (V Int) (W Int) (X Int) (Y Int) (Z Int) (A1 Int) (B1 Int) (C1 Int) (D1 Int) (E1 Int) (F1 Int) (G1 Int) (H1 Int) (I1 Int) (J1 Int) (K1 Int) (L1 Int) (M1 Int) (N1 Int) (O1 Int) (P1 Int) (Q1 Int) (R1 Int) (S1 Int) (T1 Int) (U1 Int) (V1 Int) (W1 Int) (X1 Int) (Y1 Int) (Z1 Int) ) 
    (=>
      (and
        (|<Main: void main(JayArray_java_lang_String)>_Block3_1|
  H
  G1
  Z
  U
  I1
  D
  B
  O
  E
  Q
  L
  F
  P1
  F1
  H1
  W
  N
  M1
  S1
  J1
  U1
  V1
  X
  S
  K
  C
  G
  A1
  M
  D1
  B1
  K1
  L1
  R1
  T1
  E1
  Y
  A
  T
  Q1
  C1
  P
  V
  O1
  Z1
  W1
  I
  R
  J
  Y1
  N1
  X1)
        true
      )
      (|<Main: void main(JayArray_java_lang_String)>_Block3_2|
  H
  G1
  Z
  U
  I1
  D
  B
  O
  E
  Q
  L
  F
  P1
  F1
  H1
  W
  N
  M1
  S1
  J1
  U1
  V1
  X
  S
  C
  G
  A1
  M
  D1
  B1
  K1
  L1
  R1
  T1
  E1
  Y
  A
  T
  Q1
  C1
  P
  V
  O1
  Z1
  W1
  I
  R
  J
  Y1
  N1
  X1)
    )
  )
)
(assert
  (forall ( (A Int) (B Int) (C Int) (D Int) (E Int) (F Int) (G Int) (H Int) (I Int) (J Int) (K Int) (L Int) (M Int) (N Int) (O Int) (P Int) (Q Int) (R Int) (S Int) (T Int) (U Int) (V Int) (W Int) (X Int) (Y Int) (Z Int) (A1 Int) (B1 Int) (C1 Int) (D1 Int) (E1 Int) (F1 Int) (G1 Int) (H1 Int) (I1 Int) (J1 Int) (K1 Int) (L1 Int) (M1 Int) (N1 Int) (O1 Int) (P1 Int) (Q1 Int) (R1 Int) (S1 Int) (T1 Int) (U1 Int) (V1 Int) (W1 Int) (X1 Int) (Y1 Int) ) 
    (=>
      (and
        (|<Main: void main(JayArray_java_lang_String)>_Block3_2|
  K
  A1
  W1
  H1
  W
  B
  D
  L
  P1
  H
  I1
  D1
  G1
  R1
  J
  L1
  M1
  X1
  M
  V
  V1
  E1
  Y1
  C
  B1
  Y
  X
  F1
  Q1
  U
  I
  P
  C1
  E
  N
  Q
  T1
  T
  F
  J1
  U1
  R
  O1
  A
  K1
  G
  N1
  S1
  Z
  S
  O)
        (= I 0)
      )
      (|<Main: void main(JayArray_java_lang_String)>_Block4|
  K
  A1
  W1
  H1
  W
  B
  D
  L
  P1
  H
  I1
  D1
  G1
  R1
  J
  L1
  M1
  X1
  M
  V
  V1
  E1
  Y1
  C
  F1
  Q1
  U
  I
  P
  C1
  E
  N
  Q
  T1
  T
  F
  J1
  U1
  R
  O1
  A
  K1
  G
  N1
  S1
  Z
  S
  O)
    )
  )
)
(assert
  (forall ( (A Int) (B Int) (C Int) (D Int) (E Int) (F Int) (G Int) (H Int) (I Int) (J Int) (K Int) (L Int) (M Int) (N Int) (O Int) (P Int) (Q Int) (R Int) (S Int) (T Int) (U Int) (V Int) (W Int) (X Int) (Y Int) (Z Int) (A1 Int) (B1 Int) (C1 Int) (D1 Int) (E1 Int) (F1 Int) (G1 Int) (H1 Int) (I1 Int) (J1 Int) (K1 Int) (L1 Int) (M1 Int) (N1 Int) (O1 Int) (P1 Int) (Q1 Int) (R1 Int) (S1 Int) (T1 Int) (U1 Int) (V1 Int) (W1 Int) ) 
    (=>
      (and
        (|<Main: void main(JayArray_java_lang_String)>_Block4|
  J1
  E
  C
  J
  C1
  D
  W
  O
  Z
  R
  O1
  B1
  M1
  P1
  Q
  S
  G
  N
  V1
  S1
  L
  P
  B
  U
  N1
  M
  I1
  F1
  G1
  T1
  A1
  E1
  U1
  Q1
  D1
  K
  V
  L1
  H
  X
  Y
  A
  F
  T
  K1
  H1
  R1
  W1)
        (= I (+ 1 G1))
      )
      (|<Main: void main(JayArray_java_lang_String)>_Block4_1|
  J1
  E
  C
  J
  C1
  D
  W
  O
  Z
  R
  O1
  B1
  M1
  P1
  Q
  S
  G
  N
  V1
  S1
  L
  P
  B
  U
  I
  T1
  A1
  E1
  U1
  Q1
  D1
  K
  V
  L1
  H
  X
  Y
  A
  F
  T
  K1
  H1
  R1
  W1)
    )
  )
)
(assert
  (forall ( (A Int) (B Int) (C Int) (D Int) (E Int) (F Int) (G Int) (H Int) (I Int) (J Int) (K Int) (L Int) (M Int) (N Int) (O Int) (P Int) (Q Int) (R Int) (S Int) (T Int) (U Int) (V Int) (W Int) (X Int) ) 
    (=>
      (and
        true
      )
      (|<Main: void main(JayArray_java_lang_String)>_pre|
  N
  F
  B
  D
  X
  H
  U
  T
  E
  O
  C
  J
  S
  L
  M
  P
  G
  I
  R
  A
  W
  Q
  K
  V)
    )
  )
)
(assert
  (forall ( (A Int) (B Int) (C Int) (D Int) (E Int) (F Int) (G Int) (H Int) (I Int) (J Int) (K Int) (L Int) (M Int) (N Int) (O Int) (P Int) (Q Int) (R Int) (S Int) (T Int) (U Int) (V Int) (W Int) (X Int) (Y Int) (Z Int) (A1 Int) (B1 Int) (C1 Int) (D1 Int) (E1 Int) (F1 Int) (G1 Int) (H1 Int) (I1 Int) (J1 Int) (K1 Int) (L1 Int) (M1 Int) (N1 Int) (O1 Int) (P1 Int) (Q1 Int) (R1 Int) ) 
    (=>
      (and
        (|<Main: void main(JayArray_java_lang_String)>_Block4_1|
  B1
  O
  V
  G
  J1
  N
  E1
  F
  I1
  L
  F1
  M1
  Q
  D1
  W
  B
  Z
  X
  M
  H
  K
  K1
  J
  E
  I
  A1
  A
  T
  P
  H1
  C1
  R
  R1
  U
  P1
  C
  Q1
  O1
  S
  G1
  N1
  D
  Y
  L1)
        (not (<= I 1))
      )
      false
    )
  )
)

(check-sat)
(exit)
